(set-info :smt-lib-version 2.6)
(set-logic QF_BV)
(set-info :source |
 Patrice Godefroid, SAGE (systematic dynamic test generation)
 For more information: http://research.microsoft.com/en-us/um/people/pg/public_psfiles/ndss2008.pdf
|)
(set-info :category "industrial")
(set-info :status unsat)
(declare-fun T4_16 () (_ BitVec 32))
(declare-fun T4_1001 () (_ BitVec 32))
(declare-fun T4_342 () (_ BitVec 32))
(declare-fun T4_795 () (_ BitVec 32))
(declare-fun T4_655 () (_ BitVec 32))
(declare-fun T4_526 () (_ BitVec 32))
(declare-fun T4_412 () (_ BitVec 32))
(declare-fun T4_366 () (_ BitVec 32))
(declare-fun T4_262 () (_ BitVec 32))
(declare-fun T4_224 () (_ BitVec 32))
(declare-fun T4_46 () (_ BitVec 32))
(declare-fun T4_27277 () (_ BitVec 32))
(declare-fun T2_62 () (_ BitVec 16))
(declare-fun T2_60 () (_ BitVec 16))
(declare-fun T2_58 () (_ BitVec 16))
(declare-fun T2_56 () (_ BitVec 16))
(declare-fun T2_54 () (_ BitVec 16))
(declare-fun T4_392 () (_ BitVec 32))
(declare-fun T4_1005 () (_ BitVec 32))
(declare-fun T4_464 () (_ BitVec 32))
(declare-fun T2_460 () (_ BitVec 16))
(declare-fun T4_578 () (_ BitVec 32))
(declare-fun T2_574 () (_ BitVec 16))
(declare-fun T2_755 () (_ BitVec 16))
(declare-fun T2_725 () (_ BitVec 16))
(declare-fun T2_697 () (_ BitVec 16))
(declare-fun T2_665 () (_ BitVec 16))
(declare-fun T2_979 () (_ BitVec 16))
(declare-fun T2_975 () (_ BitVec 16))
(declare-fun T2_927 () (_ BitVec 16))
(declare-fun T2_921 () (_ BitVec 16))
(declare-fun T2_873 () (_ BitVec 16))
(declare-fun T2_825 () (_ BitVec 16))
(declare-fun T4_27281 () (_ BitVec 32))
(declare-fun T2_507 () (_ BitVec 16))
(declare-fun T1_755 () (_ BitVec 8))
(declare-fun T1_665 () (_ BitVec 8))
(declare-fun T1_697 () (_ BitVec 8))
(declare-fun T1_725 () (_ BitVec 8))
(declare-fun T1_27281 () (_ BitVec 8))
(declare-fun T1_27282 () (_ BitVec 8))
(declare-fun T1_27283 () (_ BitVec 8))
(declare-fun T1_27284 () (_ BitVec 8))
(declare-fun T1_27277 () (_ BitVec 8))
(declare-fun T1_27278 () (_ BitVec 8))
(declare-fun T1_27279 () (_ BitVec 8))
(declare-fun T1_27280 () (_ BitVec 8))
(declare-fun T1_1005 () (_ BitVec 8))
(declare-fun T1_1006 () (_ BitVec 8))
(declare-fun T1_1007 () (_ BitVec 8))
(declare-fun T1_1008 () (_ BitVec 8))
(declare-fun T1_1001 () (_ BitVec 8))
(declare-fun T1_1002 () (_ BitVec 8))
(declare-fun T1_1003 () (_ BitVec 8))
(declare-fun T1_1004 () (_ BitVec 8))
(declare-fun T1_979 () (_ BitVec 8))
(declare-fun T1_980 () (_ BitVec 8))
(declare-fun T1_975 () (_ BitVec 8))
(declare-fun T1_976 () (_ BitVec 8))
(declare-fun T1_927 () (_ BitVec 8))
(declare-fun T1_928 () (_ BitVec 8))
(declare-fun T1_921 () (_ BitVec 8))
(declare-fun T1_922 () (_ BitVec 8))
(declare-fun T1_873 () (_ BitVec 8))
(declare-fun T1_874 () (_ BitVec 8))
(declare-fun T1_825 () (_ BitVec 8))
(declare-fun T1_826 () (_ BitVec 8))
(declare-fun T1_795 () (_ BitVec 8))
(declare-fun T1_796 () (_ BitVec 8))
(declare-fun T1_797 () (_ BitVec 8))
(declare-fun T1_798 () (_ BitVec 8))
(declare-fun T1_756 () (_ BitVec 8))
(declare-fun T1_726 () (_ BitVec 8))
(declare-fun T1_698 () (_ BitVec 8))
(declare-fun T1_666 () (_ BitVec 8))
(declare-fun T1_655 () (_ BitVec 8))
(declare-fun T1_656 () (_ BitVec 8))
(declare-fun T1_657 () (_ BitVec 8))
(declare-fun T1_658 () (_ BitVec 8))
(declare-fun T1_578 () (_ BitVec 8))
(declare-fun T1_579 () (_ BitVec 8))
(declare-fun T1_580 () (_ BitVec 8))
(declare-fun T1_581 () (_ BitVec 8))
(declare-fun T1_574 () (_ BitVec 8))
(declare-fun T1_575 () (_ BitVec 8))
(declare-fun T1_526 () (_ BitVec 8))
(declare-fun T1_527 () (_ BitVec 8))
(declare-fun T1_528 () (_ BitVec 8))
(declare-fun T1_529 () (_ BitVec 8))
(declare-fun T1_507 () (_ BitVec 8))
(declare-fun T1_508 () (_ BitVec 8))
(declare-fun T1_464 () (_ BitVec 8))
(declare-fun T1_465 () (_ BitVec 8))
(declare-fun T1_466 () (_ BitVec 8))
(declare-fun T1_467 () (_ BitVec 8))
(declare-fun T1_460 () (_ BitVec 8))
(declare-fun T1_461 () (_ BitVec 8))
(declare-fun T1_412 () (_ BitVec 8))
(declare-fun T1_413 () (_ BitVec 8))
(declare-fun T1_414 () (_ BitVec 8))
(declare-fun T1_415 () (_ BitVec 8))
(declare-fun T1_392 () (_ BitVec 8))
(declare-fun T1_393 () (_ BitVec 8))
(declare-fun T1_394 () (_ BitVec 8))
(declare-fun T1_395 () (_ BitVec 8))
(declare-fun T1_366 () (_ BitVec 8))
(declare-fun T1_367 () (_ BitVec 8))
(declare-fun T1_368 () (_ BitVec 8))
(declare-fun T1_369 () (_ BitVec 8))
(declare-fun T1_342 () (_ BitVec 8))
(declare-fun T1_343 () (_ BitVec 8))
(declare-fun T1_344 () (_ BitVec 8))
(declare-fun T1_345 () (_ BitVec 8))
(declare-fun T1_262 () (_ BitVec 8))
(declare-fun T1_263 () (_ BitVec 8))
(declare-fun T1_264 () (_ BitVec 8))
(declare-fun T1_265 () (_ BitVec 8))
(declare-fun T1_224 () (_ BitVec 8))
(declare-fun T1_225 () (_ BitVec 8))
(declare-fun T1_226 () (_ BitVec 8))
(declare-fun T1_227 () (_ BitVec 8))
(declare-fun T1_62 () (_ BitVec 8))
(declare-fun T1_63 () (_ BitVec 8))
(declare-fun T1_60 () (_ BitVec 8))
(declare-fun T1_61 () (_ BitVec 8))
(declare-fun T1_58 () (_ BitVec 8))
(declare-fun T1_59 () (_ BitVec 8))
(declare-fun T1_56 () (_ BitVec 8))
(declare-fun T1_57 () (_ BitVec 8))
(declare-fun T1_54 () (_ BitVec 8))
(declare-fun T1_55 () (_ BitVec 8))
(declare-fun T1_46 () (_ BitVec 8))
(declare-fun T1_47 () (_ BitVec 8))
(declare-fun T1_48 () (_ BitVec 8))
(declare-fun T1_49 () (_ BitVec 8))
(declare-fun T1_16 () (_ BitVec 8))
(declare-fun T1_17 () (_ BitVec 8))
(declare-fun T1_18 () (_ BitVec 8))
(declare-fun T1_19 () (_ BitVec 8))
(assert (let ((?v_0 (bvadd T4_16 (_ bv50 32))) (?v_128 (bvsub T4_1001 (_ bv50 32)))) (let ((?v_133 (bvadd ?v_128 ?v_0)) (?v_132 (bvadd ?v_0 T4_342))) (let ((?v_131 (bvadd ?v_132 T4_342))) (let ((?v_130 (bvadd ?v_131 T4_342))) (let ((?v_135 (bvadd ?v_130 T4_342))) (let ((?v_136 (bvadd ?v_135 T4_342)) (?v_134 (bvult ?v_133 (_ bv27401 32))) (?v_122 (bvadd T4_46 T4_224))) (let ((?v_120 (bvadd ?v_122 T4_262))) (let ((?v_117 (bvadd ?v_120 T4_366))) (let ((?v_115 (bvadd ?v_117 T4_412))) (let ((?v_113 (bvadd ?v_115 T4_526))) (let ((?v_126 (bvadd ?v_113 T4_655)) (?v_129 (bvadd ?v_133 T4_27277)) (?v_112 (bvsub T4_16 (_ bv30 32)))) (let ((?v_127 (bvadd T4_795 ?v_126)) (?v_100 ((_ zero_extend 16) T2_62)) (?v_78 ((_ zero_extend 16) T2_60)) (?v_80 ((_ zero_extend 16) T2_58)) (?v_60 ((_ zero_extend 16) T2_56)) (?v_48 ((_ zero_extend 16) T2_54))) (let ((?v_81 (bvadd ?v_48 (_ bv34 32)))) (let ((?v_91 (bvadd ?v_81 ?v_60))) (let ((?v_101 (bvadd ?v_91 ?v_80))) (let ((?v_107 (bvadd ?v_101 ?v_78))) (let ((?v_125 (bvadd ?v_107 ?v_100)) (?v_124 (bvsub ?v_112 T4_46)) (?v_123 (bvsub ?v_112 ?v_122)) (?v_121 (bvsub ?v_112 ?v_120)) (?v_119 (bvadd T4_392 (_ bv46 32))) (?v_118 (bvsub ?v_112 ?v_117)) (?v_116 (bvsub ?v_112 ?v_115)) (?v_114 (bvsub ?v_112 ?v_113)) (?v_111 (bvsub ?v_112 ?v_126)) (?v_108 (bvsub T4_1005 ((_ zero_extend 24) (ite (bvult ?v_128 (_ bv0 32)) (_ bv1 8) (_ bv0 8)))))) (let ((?v_110 (bvule ?v_108 (_ bv0 32))) (?v_109 (bvule (_ bv0 32) ?v_108)) (?v_106 (bvadd T4_46 (_ bv4190118 32))) (?v_7 ((_ zero_extend 16) T2_460))) (let ((?v_97 (bvadd ?v_7 (_ bv78 32)))) (let ((?v_105 (bvadd ?v_97 T4_464)) (?v_18 ((_ zero_extend 16) T2_574))) (let ((?v_96 (bvadd ?v_18 (_ bv78 32)))) (let ((?v_104 (bvadd ?v_96 T4_578)) (?v_68 ((_ zero_extend 16) T2_755)) (?v_71 ((_ zero_extend 16) T2_725)) (?v_51 ((_ zero_extend 16) T2_697)) (?v_73 ((_ zero_extend 16) T2_665)) (?v_64 ((_ zero_extend 16) T2_979)) (?v_62 ((_ zero_extend 16) T2_975))) (let ((?v_65 (bvadd ?v_62 ?v_62)) (?v_14 ((_ zero_extend 16) T2_927))) (let ((?v_39 (bvadd ?v_14 ?v_14)) (?v_6 ((_ zero_extend 16) T2_921)) (?v_5 ((_ zero_extend 16) T2_873))) (let ((?v_13 (bvadd ?v_5 ?v_5)) (?v_4 ((_ zero_extend 16) T2_825))) (let ((?v_12 (bvadd ?v_4 ?v_4))) (let ((?v_50 (bvadd ?v_12 (_ bv50 32)))) (let ((?v_41 (bvadd ?v_50 ?v_13))) (let ((?v_24 (bvadd ?v_41 (_ bv2 32)))) (let ((?v_16 (bvadd ?v_24 ?v_6))) (let ((?v_49 (bvadd (bvadd ?v_16 (_ bv4 32)) ?v_39))) (let ((?v_66 (bvadd ?v_49 (_ bv2 32)))) (let ((?v_82 (bvadd ?v_66 ?v_65))) (let ((?v_92 (bvadd ?v_82 (_ bv2 32)))) (let ((?v_103 (bvadd ?v_92 ?v_64)) (?v_102 (bvadd ?v_108 T4_27281)) (?v_99 (bvadd ?v_106 T4_224))) (let ((?v_98 (bvadd ?v_99 T4_262))) (let ((?v_75 (bvadd ?v_98 T4_366))) (let ((?v_74 (bvadd ?v_75 T4_412))) (let ((?v_70 (bvadd ?v_74 T4_526))) (let ((?v_95 (bvadd T4_655 ?v_70)) (?v_87 (bvadd ?v_70 (_ bv28 32)))) (let ((?v_88 (bvadd ?v_87 ?v_73))) (let ((?v_85 (bvadd ?v_88 (_ bv4 32)))) (let ((?v_86 (bvadd ?v_85 ?v_51))) (let ((?v_72 (bvadd ?v_86 (_ bv2 32)))) (let ((?v_84 (bvadd ?v_72 ?v_71))) (let ((?v_83 (bvadd ?v_84 (_ bv4 32)))) (let ((?v_94 (bvadd ?v_83 ?v_68)) (?v_93 (bvadd ?v_70 T4_655)) (?v_90 (bvadd ?v_75 (_ bv78 32))) (?v_31 ((_ zero_extend 16) T2_507)) (?v_89 (bvadd ?v_74 (_ bv78 32)))) (let ((?v_67 (bvadd ?v_93 (_ bv48 32))) (?v_79 (bvadd ?v_78 (_ bv2 32))) (?v_59 (bvadd ?v_48 (_ bv4190152 32)))) (let ((?v_76 (bvadd ?v_59 ?v_60))) (let ((?v_77 (bvadd ?v_76 ?v_80)) (?v_69 (bvsub (_ bv32 32) ?v_68)) (?v_40 (bvadd (bvadd ?v_67 ?v_12) (_ bv2 32)))) (let ((?v_23 (bvadd (bvadd ?v_40 ?v_13) (_ bv2 32)))) (let ((?v_15 (bvadd (bvadd ?v_23 ?v_6) (_ bv4 32)))) (let ((?v_61 (bvadd (bvadd ?v_15 ?v_39) (_ bv2 32)))) (let ((?v_63 (bvadd (bvadd ?v_61 ?v_65) (_ bv2 32))) (?v_58 (bvsub (_ bv56 32) ?v_79)) (?v_57 (bvsub (_ bv40 32) ?v_7)) (?v_2 (bvadd ?v_7 (_ bv4294967278 32))) (?v_47 (bvadd ?v_31 (_ bv58590012 32))) (?v_46 (bvadd ?v_7 (_ bv72 32))) (?v_56 (bvadd ?v_7 (_ bv0 32))) (?v_55 (bvsub (_ bv64 32) ?v_18)) (?v_26 (bvadd ?v_18 (_ bv27 32))) (?v_54 (bvadd ?v_18 (_ bv109 32))) (?v_53 (bvadd ?v_18 (_ bv37 32))) (?v_52 (bvsub (_ bv40 32) ?v_51)) (?v_42 ((_ extract 7 0) ?v_69))) (let ((?v_38 ((_ extract 7 0) ?v_58)) (?v_37 ((_ extract 7 0) ?v_57)) (?v_1 (bvadd ?v_31 (_ bv20 32))) (?v_45 (bvadd ?v_46 (bvsub (_ bv18 32) ?v_56))) (?v_34 ((_ zero_extend 24) ((_ extract 15 8) ?v_2))) (?v_33 ((_ zero_extend 24) ((_ extract 7 0) ?v_2)))) (let ((?v_21 (bvadd ((_ zero_extend 24) ((_ extract 7 0) ?v_1)) (bvshl ((_ zero_extend 24) ((_ extract 15 8) ?v_1)) (_ bv8 32))))) (let ((?v_32 (bvadd (bvadd (bvadd ?v_21 (bvshl ?v_33 (_ bv16 32))) (bvshl ?v_34 (_ bv24 32))) ?v_2))) (let ((?v_9 (bvadd ?v_32 (_ bv64 32))) (?v_29 ((_ extract 7 0) ?v_55)) (?v_28 (bvsub ?v_18 (_ bv51 32))) (?v_44 (bvsub (_ bv88 32) ?v_26)) (?v_43 (bvsub (_ bv168 32) ?v_54)) (?v_25 ((_ extract 7 0) ?v_52)) (?v_36 (bvadd (bvadd ?v_1 ?v_2) (_ bv64 32))) (?v_35 (bvsub (_ bv32 32) ?v_1)) (?v_22 ((_ zero_extend 16) (_ bv0 16))) (?v_30 (bvsub (_ bv104 32) ?v_45))) (let ((?v_19 ((_ extract 7 0) ?v_44)) (?v_27 (bvult ?v_22 (bvadd ((_ zero_extend 24) ((_ extract 7 0) ?v_26)) (bvshl ((_ zero_extend 24) ((_ extract 15 8) ?v_26)) (_ bv8 32))))) (?v_17 ((_ extract 7 0) ?v_43)) (?v_11 ((_ extract 7 0) ?v_35)) (?v_20 (bvsub (_ bv104 32) ?v_9)) (?v_8 ((_ extract 7 0) ?v_30))) (let ((?v_3 ((_ extract 7 0) ?v_20)) (?v_10 (bvult ?v_22 (bvadd ((_ zero_extend 24) ((_ extract 7 0) ?v_9)) (bvshl ((_ zero_extend 24) ((_ extract 15 8) ?v_9)) (_ bv8 32)))))) (and true (= T4_16 (bvor (bvshl (bvor (bvshl (bvor (bvshl ((_ zero_extend 24) T1_19) (_ bv8 32)) ((_ zero_extend 24) T1_18)) (_ bv8 32)) ((_ zero_extend 24) T1_17)) (_ bv8 32)) ((_ zero_extend 24) T1_16))) (= T4_46 (bvor (bvshl (bvor (bvshl (bvor (bvshl ((_ zero_extend 24) T1_49) (_ bv8 32)) ((_ zero_extend 24) T1_48)) (_ bv8 32)) ((_ zero_extend 24) T1_47)) (_ bv8 32)) ((_ zero_extend 24) T1_46))) (= T2_54 (bvor (bvshl ((_ zero_extend 8) T1_55) (_ bv8 16)) ((_ zero_extend 8) T1_54))) (= T2_56 (bvor (bvshl ((_ zero_extend 8) T1_57) (_ bv8 16)) ((_ zero_extend 8) T1_56))) (= T2_58 (bvor (bvshl ((_ zero_extend 8) T1_59) (_ bv8 16)) ((_ zero_extend 8) T1_58))) (= T2_60 (bvor (bvshl ((_ zero_extend 8) T1_61) (_ bv8 16)) ((_ zero_extend 8) T1_60))) (= T2_62 (bvor (bvshl ((_ zero_extend 8) T1_63) (_ bv8 16)) ((_ zero_extend 8) T1_62))) (= T4_224 (bvor (bvshl (bvor (bvshl (bvor (bvshl ((_ zero_extend 24) T1_227) (_ bv8 32)) ((_ zero_extend 24) T1_226)) (_ bv8 32)) ((_ zero_extend 24) T1_225)) (_ bv8 32)) ((_ zero_extend 24) T1_224))) (= T4_262 (bvor (bvshl (bvor (bvshl (bvor (bvshl ((_ zero_extend 24) T1_265) (_ bv8 32)) ((_ zero_extend 24) T1_264)) (_ bv8 32)) ((_ zero_extend 24) T1_263)) (_ bv8 32)) ((_ zero_extend 24) T1_262))) (= T4_342 (bvor (bvshl (bvor (bvshl (bvor (bvshl ((_ zero_extend 24) T1_345) (_ bv8 32)) ((_ zero_extend 24) T1_344)) (_ bv8 32)) ((_ zero_extend 24) T1_343)) (_ bv8 32)) ((_ zero_extend 24) T1_342))) (= T4_366 (bvor (bvshl (bvor (bvshl (bvor (bvshl ((_ zero_extend 24) T1_369) (_ bv8 32)) ((_ zero_extend 24) T1_368)) (_ bv8 32)) ((_ zero_extend 24) T1_367)) (_ bv8 32)) ((_ zero_extend 24) T1_366))) (= T4_392 (bvor (bvshl (bvor (bvshl (bvor (bvshl ((_ zero_extend 24) T1_395) (_ bv8 32)) ((_ zero_extend 24) T1_394)) (_ bv8 32)) ((_ zero_extend 24) T1_393)) (_ bv8 32)) ((_ zero_extend 24) T1_392))) (= T4_412 (bvor (bvshl (bvor (bvshl (bvor (bvshl ((_ zero_extend 24) T1_415) (_ bv8 32)) ((_ zero_extend 24) T1_414)) (_ bv8 32)) ((_ zero_extend 24) T1_413)) (_ bv8 32)) ((_ zero_extend 24) T1_412))) (= T2_460 (bvor (bvshl ((_ zero_extend 8) T1_461) (_ bv8 16)) ((_ zero_extend 8) T1_460))) (= T4_464 (bvor (bvshl (bvor (bvshl (bvor (bvshl ((_ zero_extend 24) T1_467) (_ bv8 32)) ((_ zero_extend 24) T1_466)) (_ bv8 32)) ((_ zero_extend 24) T1_465)) (_ bv8 32)) ((_ zero_extend 24) T1_464))) (= T2_507 (bvor (bvshl ((_ zero_extend 8) T1_508) (_ bv8 16)) ((_ zero_extend 8) T1_507))) (= T4_526 (bvor (bvshl (bvor (bvshl (bvor (bvshl ((_ zero_extend 24) T1_529) (_ bv8 32)) ((_ zero_extend 24) T1_528)) (_ bv8 32)) ((_ zero_extend 24) T1_527)) (_ bv8 32)) ((_ zero_extend 24) T1_526))) (= T2_574 (bvor (bvshl ((_ zero_extend 8) T1_575) (_ bv8 16)) ((_ zero_extend 8) T1_574))) (= T4_578 (bvor (bvshl (bvor (bvshl (bvor (bvshl ((_ zero_extend 24) T1_581) (_ bv8 32)) ((_ zero_extend 24) T1_580)) (_ bv8 32)) ((_ zero_extend 24) T1_579)) (_ bv8 32)) ((_ zero_extend 24) T1_578))) (= T4_655 (bvor (bvshl (bvor (bvshl (bvor (bvshl ((_ zero_extend 24) T1_658) (_ bv8 32)) ((_ zero_extend 24) T1_657)) (_ bv8 32)) ((_ zero_extend 24) T1_656)) (_ bv8 32)) ((_ zero_extend 24) T1_655))) (= T2_665 (bvor (bvshl ((_ zero_extend 8) T1_666) (_ bv8 16)) ((_ zero_extend 8) T1_665))) (= T2_697 (bvor (bvshl ((_ zero_extend 8) T1_698) (_ bv8 16)) ((_ zero_extend 8) T1_697))) (= T2_725 (bvor (bvshl ((_ zero_extend 8) T1_726) (_ bv8 16)) ((_ zero_extend 8) T1_725))) (= T2_755 (bvor (bvshl ((_ zero_extend 8) T1_756) (_ bv8 16)) ((_ zero_extend 8) T1_755))) (= T4_795 (bvor (bvshl (bvor (bvshl (bvor (bvshl ((_ zero_extend 24) T1_798) (_ bv8 32)) ((_ zero_extend 24) T1_797)) (_ bv8 32)) ((_ zero_extend 24) T1_796)) (_ bv8 32)) ((_ zero_extend 24) T1_795))) (= T2_825 (bvor (bvshl ((_ zero_extend 8) T1_826) (_ bv8 16)) ((_ zero_extend 8) T1_825))) (= T2_873 (bvor (bvshl ((_ zero_extend 8) T1_874) (_ bv8 16)) ((_ zero_extend 8) T1_873))) (= T2_921 (bvor (bvshl ((_ zero_extend 8) T1_922) (_ bv8 16)) ((_ zero_extend 8) T1_921))) (= T2_927 (bvor (bvshl ((_ zero_extend 8) T1_928) (_ bv8 16)) ((_ zero_extend 8) T1_927))) (= T2_975 (bvor (bvshl ((_ zero_extend 8) T1_976) (_ bv8 16)) ((_ zero_extend 8) T1_975))) (= T2_979 (bvor (bvshl ((_ zero_extend 8) T1_980) (_ bv8 16)) ((_ zero_extend 8) T1_979))) (= T4_1001 (bvor (bvshl (bvor (bvshl (bvor (bvshl ((_ zero_extend 24) T1_1004) (_ bv8 32)) ((_ zero_extend 24) T1_1003)) (_ bv8 32)) ((_ zero_extend 24) T1_1002)) (_ bv8 32)) ((_ zero_extend 24) T1_1001))) (= T4_1005 (bvor (bvshl (bvor (bvshl (bvor (bvshl ((_ zero_extend 24) T1_1008) (_ bv8 32)) ((_ zero_extend 24) T1_1007)) (_ bv8 32)) ((_ zero_extend 24) T1_1006)) (_ bv8 32)) ((_ zero_extend 24) T1_1005))) (= T4_27277 (bvor (bvshl (bvor (bvshl (bvor (bvshl ((_ zero_extend 24) T1_27280) (_ bv8 32)) ((_ zero_extend 24) T1_27279)) (_ bv8 32)) ((_ zero_extend 24) T1_27278)) (_ bv8 32)) ((_ zero_extend 24) T1_27277))) (= T4_27281 (bvor (bvshl (bvor (bvshl (bvor (bvshl ((_ zero_extend 24) T1_27284) (_ bv8 32)) ((_ zero_extend 24) T1_27283)) (_ bv8 32)) ((_ zero_extend 24) T1_27282)) (_ bv8 32)) ((_ zero_extend 24) T1_27281))) (bvult ?v_136 ?v_0) (= (bvand ?v_3 (_ bv128 8)) (_ bv0 8)) (not (= (bvand ?v_3 (_ bv63 8)) (_ bv0 8))) (bvult (bvsub (_ bv16 32) ?v_6) (_ bv63 32)) (bvule (_ bv2 32) (bvadd ?v_16 (_ bv2 32))) (= (bvand ?v_8 (_ bv128 8)) (_ bv0 8)) (not (= (bvand ?v_8 (_ bv63 8)) (_ bv0 8))) ?v_10 ?v_10 (not (= ?v_3 (_ bv4 8))) (not (= ?v_3 (_ bv5 8))) (= (bvand ?v_11 (_ bv128 8)) (_ bv0 8)) (not (= (bvand ?v_11 (_ bv63 8)) (_ bv0 8))) (bvult ?v_15 (_ bv58591880 32)) (bvule (bvadd ?v_39 ?v_15) (_ bv58591880 32)) (not (= T2_927 (_ bv0 16))) (bvult ?v_6 (_ bv256 32)) (bvult ?v_6 (_ bv2147483648 32)) (bvule ?v_6 (_ bv2147483647 32)) (not (= ?v_6 (_ bv0 32))) (bvule ?v_6 (_ bv4294967264 32)) (bvule ?v_6 ?v_16) (= (bvand ?v_17 (_ bv128 8)) (_ bv0 8)) (not (= (bvand ?v_17 (_ bv63 8)) (_ bv0 8))) (= (bvand ?v_19 (_ bv128 8)) (_ bv0 8)) (not (= (bvand ?v_19 (_ bv63 8)) (_ bv0 8))) (not (= ?v_8 (_ bv4 8))) (not (= ?v_8 (_ bv5 8))) (bvult ?v_20 (_ bv63 32)) (not (= ?v_21 ?v_22)) (not (= ?v_11 (_ bv4 8))) (not (= ?v_11 (_ bv5 8))) (bvule (_ bv1296584 32) ?v_23) (not (= T2_873 (_ bv0 16))) (bvule (_ bv2 32) ?v_24) (= (bvand ?v_25 (_ bv128 8)) (_ bv0 8)) (not (= (bvand ?v_25 (_ bv63 8)) (_ bv0 8))) (not (= ?v_17 (_ bv4 8))) (not (= ?v_17 (_ bv5 8))) ?v_27 ?v_27 (not (= ?v_19 (_ bv4 8))) (not (= ?v_19 (_ bv5 8))) (= (bvadd ((_ zero_extend 24) ((_ extract 7 0) ?v_28)) (bvshl ((_ zero_extend 24) ((_ extract 15 8) ?v_28)) (_ bv8 32))) ?v_22) (= (bvand ?v_29 (_ bv128 8)) (_ bv0 8)) (not (= (bvand ?v_29 (_ bv63 8)) (_ bv0 8))) (bvult ?v_30 (_ bv63 32)) (not (= (bvand ?v_47 (_ bv3 32)) (_ bv0 32))) (bvule (bvadd ?v_32 (_ bv58590096 32)) (_ bv58696632 32)) (bvule (bvadd ?v_32 (_ bv58589992 32)) (_ bv58590032 32)) (bvult ?v_9 (_ bv256 32)) (bvult ?v_9 (_ bv2147483648 32)) (bvule ?v_9 (_ bv2147483647 32)) (not (= ?v_9 (_ bv0 32))) (bvule ?v_9 (_ bv4294967264 32)) (not (= (bvadd ?v_33 (bvshl ?v_34 (_ bv8 32))) ?v_22)) (bvult ?v_35 (_ bv63 32)) (bvule ?v_36 ?v_9) (bvule ?v_36 (_ bv65535 32)) (= (bvand ?v_37 (_ bv128 8)) (_ bv0 8)) (not (= (bvand ?v_37 (_ bv63 8)) (_ bv0 8))) (= (bvand ?v_38 (_ bv128 8)) (_ bv0 8)) (not (= (bvand ?v_38 (_ bv63 8)) (_ bv0 8))) (bvule (_ bv1310656 32) ?v_61) (not (= T2_975 (_ bv0 16))) (bvule ?v_39 ?v_49) (bvule (bvadd ?v_13 ?v_40) (_ bv58591824 32)) (bvult ?v_13 (_ bv256 32)) (bvule ?v_13 ?v_41) (= (bvand ?v_42 (_ bv128 8)) (_ bv0 8)) (not (= (bvand ?v_42 (_ bv63 8)) (_ bv0 8))) (not (= ?v_25 (_ bv4 8))) (not (= ?v_25 (_ bv5 8))) (bvult ?v_43 (_ bv63 32)) (bvult ?v_44 (_ bv63 32)) (bvule (_ bv78 32) (bvsub (_ bv65535 32) ?v_28)) (not (= ?v_29 (_ bv4 8))) (not (= ?v_29 (_ bv5 8))) (bvule (_ bv58687706 32) (bvadd ?v_31 (_ bv58696716 32))) (bvule (bvadd ?v_31 (_ bv84 32)) ?v_9) (bvule (bvadd ?v_31 (_ bv1310636 32)) (_ bv58589992 32)) (bvule (bvadd ?v_31 (_ bv1296543 32)) (_ bv1310636 32)) (bvule (_ bv20 32) (bvsub (_ bv65535 32) ?v_31)) (bvult ?v_45 (_ bv2147483648 32)) (bvule ?v_45 (_ bv2147483647 32)) (not (= ?v_45 (_ bv0 32))) (bvule ?v_45 (_ bv4294967264 32)) (bvult (bvsub (_ bv112 32) ?v_46) (_ bv63 32)) (bvult (_ bv1296514 32) ?v_47) (bvult ?v_1 (_ bv256 32)) (bvult ?v_1 (_ bv2147483648 32)) (bvule ?v_1 (_ bv2147483647 32)) (not (= ?v_1 (_ bv0 32))) (bvule ?v_1 (_ bv4294967264 32)) (not (= ?v_37 (_ bv4 8))) (not (= ?v_37 (_ bv5 8))) (not (= ?v_38 (_ bv4 8))) (not (= ?v_38 (_ bv5 8))) (bvule (_ bv1296496 32) ?v_59) (bvult ?v_48 (_ bv256 32)) (not (= T2_54 (_ bv0 16))) (bvule (_ bv2 32) ?v_66) (bvult ?v_40 (_ bv58591824 32)) (bvule (_ bv2 32) ?v_50) (not (= T2_825 (_ bv0 16))) (not (= ?v_42 (_ bv4 8))) (not (= ?v_42 (_ bv5 8))) (= (bvand T1_725 (_ bv1 8)) (_ bv0 8)) (= (bvand T1_697 (_ bv1 8)) (_ bv0 8)) (bvule (bvadd ?v_51 (_ bv58593144 32)) (_ bv58692800 32)) (bvule (bvadd ?v_51 (_ bv58593064 32)) (_ bv58593144 32)) (bvule (bvadd ?v_51 (_ bv1310616 32)) (_ bv58593064 32)) (bvult ?v_52 (_ bv63 32)) (= (bvand T1_665 (_ bv1 8)) (_ bv0 8)) (bvule ?v_53 (_ bv65536 32)) (not (= ?v_53 (_ bv0 32))) (bvule (bvadd ?v_18 (_ bv58697427 32)) (_ bv58697648 32)) (bvult ?v_54 (_ bv2147483648 32)) (bvule ?v_54 (_ bv2147483647 32)) (not (= ?v_54 (_ bv0 32))) (bvule ?v_54 (_ bv4294967264 32)) (bvule (bvadd ?v_18 (_ bv58590643 32)) (_ bv58697400 32)) (bvule (bvadd ?v_18 (_ bv58589955 32)) (_ bv58590616 32)) (bvule (_ bv4 32) ?v_26) (bvult ?v_26 (_ bv256 32)) (bvult ?v_26 (_ bv2147483648 32)) (bvule ?v_26 (_ bv2147483647 32)) (not (= ?v_26 (_ bv0 32))) (bvule ?v_26 (_ bv4294967264 32)) (bvult ?v_55 (_ bv63 32)) (bvult ?v_31 (_ bv256 32)) (bvule ?v_56 (_ bv65536 32)) (not (= ?v_56 (_ bv0 32))) (bvule ?v_46 (_ bv2147483647 32)) (not (= ?v_46 (_ bv0 32))) (bvule ?v_46 (_ bv4294967264 32)) (bvule (_ bv0 32) (bvadd ?v_7 (_ bv4294967274 32))) (bvule (bvadd ?v_7 (_ bv1296496 32)) ?v_47) (bvult ?v_2 (_ bv256 32)) (bvult ?v_57 (_ bv63 32)) (bvult ?v_58 (_ bv63 32)) (bvule (_ bv1296496 32) ?v_76) (bvult ?v_60 (_ bv256 32)) (not (= T2_56 (_ bv0 16))) (bvule T2_54 T2_56) (bvule ?v_48 ?v_81) (bvult ?v_63 (_ bv58590000 32)) (bvule (bvadd ?v_64 ?v_63) (_ bv58590000 32)) (bvult (bvsub (_ bv16 32) ?v_64) (_ bv63 32)) (bvule ?v_65 ?v_82) (bvult ?v_12 (_ bv256 32)) (bvule (bvadd ?v_12 ?v_67) (_ bv58591768 32)) (= (bvand T1_755 (_ bv1 8)) (_ bv0 8)) (bvule (bvadd ?v_68 (_ bv58593184 32)) (_ bv58690712 32)) (bvule (bvadd ?v_68 (_ bv58592880 32)) (_ bv58593184 32)) (bvule (bvadd ?v_68 (_ bv58589968 32)) (_ bv58592880 32)) (bvult ?v_69 (_ bv63 32)) (bvule (bvadd ?v_68 ?v_83) (_ bv58589968 32)) (bvule (bvadd ?v_71 ?v_72) (_ bv58589928 32)) (bvult ?v_71 (_ bv256 32)) (not (= T2_725 (_ bv0 16))) (bvule ?v_51 (_ bv65535 32)) (bvult (_ bv8 32) ?v_51) (bvult (_ bv0 32) ?v_51) (bvult ?v_51 (_ bv256 32)) (bvult ?v_51 (_ bv2147483648 32)) (bvule ?v_51 (_ bv2147483647 32)) (not (= ?v_51 (_ bv0 32))) (bvule ?v_51 (_ bv4294967264 32)) (bvult ?v_73 (_ bv256 32)) (not (= T2_665 (_ bv0 16))) (bvule (_ bv51 32) ?v_18) (bvule (_ bv51 16) T2_574) (bvult ?v_18 (_ bv256 32)) (bvult ?v_18 (_ bv2147483648 32)) (bvule ?v_18 (_ bv2147483647 32)) (not (= ?v_18 (_ bv0 32))) (bvule ?v_18 (_ bv4294967264 32)) (bvule (_ bv1310680 32) (bvadd ?v_89 ?v_18)) (bvult (bvsub (_ bv16 32) T4_464) (_ bv63 32)) (bvule (_ bv18 16) T2_460) (bvult ?v_7 (_ bv256 32)) (bvult ?v_7 (_ bv2147483648 32)) (bvule ?v_7 (_ bv2147483647 32)) (not (= ?v_7 (_ bv0 32))) (bvule ?v_7 (_ bv4294967264 32)) (bvule (_ bv1296536 32) (bvadd ?v_90 ?v_7)) (bvule (_ bv1296496 32) ?v_77) (bvule (_ bv1296496 32) (bvadd ?v_77 ?v_78)) (bvule (_ bv4 32) ?v_79) (bvult ?v_79 (_ bv256 32)) (bvult ?v_79 (_ bv2147483648 32)) (bvule ?v_79 (_ bv2147483647 32)) (not (= ?v_79 (_ bv0 32))) (bvule ?v_79 (_ bv4294967264 32)) (bvult ?v_80 (_ bv256 32)) (not (= T2_58 (_ bv0 16))) (bvule ?v_60 ?v_80) (bvule ?v_60 ?v_91) (bvult ?v_64 (_ bv2147483648 32)) (bvule ?v_64 (_ bv2147483647 32)) (not (= ?v_64 (_ bv0 32))) (bvule ?v_64 (_ bv4294967264 32)) (bvule (_ bv2 32) ?v_92) (bvult ?v_67 (_ bv58591768 32)) (bvule ?v_68 (_ bv512 32)) (bvule ?v_68 (_ bv65535 32)) (bvult (_ bv8 32) ?v_68) (bvult (_ bv0 32) ?v_68) (bvult ?v_68 (_ bv256 32)) (bvult ?v_68 (_ bv2147483648 32)) (bvule ?v_68 (_ bv2147483647 32)) (not (= ?v_68 (_ bv0 32))) (bvule ?v_68 (_ bv4294967264 32)) (bvult ?v_83 (_ bv58589968 32)) (bvule ?v_83 ?v_94) (bvult ?v_72 (_ bv58589928 32)) (bvule ?v_72 ?v_84) (bvule (_ bv1310616 32) ?v_85) (bvule ?v_85 ?v_86) (bvule (_ bv1296496 32) ?v_87) (bvule ?v_87 ?v_88) (bvult T4_578 (_ bv256 32)) (= T4_578 (_ bv0 32)) (bvule T4_578 (_ bv4294967264 32)) (bvule ?v_18 ?v_96) (bvule (_ bv1310616 32) ?v_89) (bvule (bvadd ?v_31 (_ bv7 32)) T4_464) (bvule (_ bv8 32) T4_464) (bvult T4_464 (_ bv256 32)) (bvult T4_464 (_ bv2147483648 32)) (bvule T4_464 (_ bv2147483647 32)) (not (= T4_464 (_ bv0 32))) (bvule T4_464 (_ bv4294967264 32)) (bvule ?v_7 ?v_97) (bvule (_ bv1296496 32) ?v_90) (bvult ?v_78 (_ bv256 32)) (not (= T2_60 (_ bv0 16))) (bvule ?v_80 ?v_78) (bvule ?v_80 ?v_101) (bvule ?v_64 ?v_103) (not (= ?v_93 (_ bv0 32))) (bvule ?v_94 ?v_95) (bvule ?v_83 ?v_95) (bvule ?v_84 ?v_95) (bvule ?v_72 ?v_95) (bvule ?v_86 ?v_95) (bvule ?v_85 ?v_95) (bvule ?v_88 ?v_95) (bvule ?v_87 ?v_95) (not (= ?v_95 (_ bv0 32))) (not (= ?v_70 (_ bv0 32))) (bvule T4_578 ?v_104) (not (= ?v_74 (_ bv0 32))) (bvule T4_464 ?v_105) (not (= ?v_75 (_ bv0 32))) (bvule T4_392 (_ bv4294967264 32)) (bvule T4_392 (_ bv0 32)) (= T4_392 (_ bv0 32)) (not (= ?v_98 (_ bv0 32))) (not (= ?v_99 (_ bv0 32))) (bvult ?v_100 (_ bv256 32)) (not (= T2_62 (_ bv0 16))) (bvult ?v_100 ?v_78) (bvule ?v_78 ?v_107) (bvule T4_27281 (_ bv0 32)) (bvule ?v_102 (_ bv0 32)) (bvule (_ bv0 32) ?v_102) (= ?v_103 T4_795) (not (= T4_795 (_ bv0 32))) (= (bvadd (bvadd (bvadd (bvadd (bvadd (bvadd ?v_73 (_ bv32 32)) ?v_51) (_ bv2 32)) ?v_71) (_ bv4 32)) ?v_68) T4_655) (not (= T4_655 (_ bv0 32))) (= ?v_104 T4_526) (= T4_526 ?v_104) (not (= T4_526 (_ bv0 32))) (= ?v_105 T4_412) (= T4_412 ?v_105) (not (= T4_412 (_ bv0 32))) (not (= T4_366 (_ bv0 32))) (= ?v_119 T4_366) (= (_ bv104 32) T4_262) (not (= T4_262 (_ bv0 32))) (= (_ bv38 32) T4_224) (not (= T4_224 (_ bv0 32))) (not (= ?v_106 (_ bv0 32))) (bvule ?v_100 ?v_125) (bvsle (_ bv0 32) ?v_108) (bvsle ?v_108 (_ bv0 32)) ?v_109 ?v_110 ?v_109 ?v_110 (bvule T4_795 ?v_111) (bvule (_ bv44 32) ?v_111) (not (= ?v_111 (_ bv0 32))) (bvule T4_655 ?v_114) (bvule (_ bv26 32) ?v_114) (not (= ?v_114 (_ bv0 32))) (bvule T4_526 ?v_116) (bvule (_ bv78 32) ?v_116) (not (= ?v_116 (_ bv0 32))) (bvule T4_412 ?v_118) (bvule (_ bv78 32) ?v_118) (not (= ?v_118 (_ bv0 32))) (bvule ?v_119 ?v_121) (bvule (_ bv46 32) ?v_121) (not (= ?v_121 (_ bv0 32))) (bvule (_ bv104 32) ?v_123) (not (= ?v_123 (_ bv0 32))) (bvule (_ bv26 32) ?v_124) (not (= ?v_124 (_ bv0 32))) (= ?v_125 T4_46) (not (= T4_46 (_ bv0 32))) (not (= T4_1001 (_ bv50 32))) (= (bvadd T4_16 (_ bv16 32)) (_ bv1001 32)) (bvule ?v_127 ?v_112) (bvult ?v_112 (bvadd ?v_127 (_ bv24 32))) (bvule (bvadd ?v_126 (_ bv24 32)) ?v_112) (bvule (bvadd (bvadd T4_655 ?v_113) (_ bv24 32)) ?v_112) (bvule (bvadd ?v_113 (_ bv24 32)) ?v_112) (bvule (bvadd (bvadd T4_526 ?v_115) (_ bv24 32)) ?v_112) (bvule (bvadd ?v_115 (_ bv24 32)) ?v_112) (bvule (bvadd (bvadd T4_412 ?v_117) (_ bv24 32)) ?v_112) (bvule (bvadd ?v_117 (_ bv24 32)) ?v_112) (bvule (bvadd (bvadd T4_366 ?v_120) (_ bv24 32)) ?v_112) (bvule (bvadd ?v_120 (_ bv24 32)) ?v_112) (bvule (bvadd (bvadd T4_262 ?v_122) (_ bv24 32)) ?v_112) (bvule (bvadd ?v_122 (_ bv24 32)) ?v_112) (bvule (bvadd (bvadd T4_224 T4_46) (_ bv24 32)) ?v_112) (bvule (bvadd T4_46 (_ bv24 32)) ?v_112) (bvule T4_46 ?v_112) (bvule (_ bv34 32) ?v_112) (bvule (_ bv24 32) ?v_112) (bvule ?v_112 (_ bv955 32)) (not (= ?v_112 (_ bv0 32))) (bvult (_ bv24 32) T4_27277) (bvule ?v_129 (_ bv27401 32)) (bvule (_ bv27401 32) ?v_129) (bvule (_ bv1 32) (bvadd T4_342 (_ bv136 32))) (= ?v_130 (bvadd T4_16 (_ bv2588 32))) (= ?v_131 (bvadd T4_16 (_ bv1742 32))) (= ?v_132 (bvadd T4_16 (_ bv896 32))) (= T4_16 (_ bv985 32)) (bvult T4_16 (bvadd T4_16 (_ bv24 32))) (= (bvadd (bvadd ?v_126 T4_795) (_ bv30 32)) T4_16) (bvule (_ bv30 32) T4_16) (not (= T4_16 (_ bv0 32))) (bvule (_ bv24 32) T4_16) (bvule T4_16 (_ bv2000 32)) (bvult (_ bv480 32) T4_16) (bvult (_ bv30 32) T4_16) (bvult T4_16 (_ bv10485760 32)) (bvult ?v_130 ?v_133) (bvult ?v_131 ?v_133) (bvult ?v_132 ?v_133) (not (= ?v_133 (_ bv4294967295 32))) (bvule (_ bv0 32) ?v_133) (not (= ?v_133 (_ bv1009 32))) ?v_134 ?v_134 (bvule (_ bv846 32) T4_342) (bvule T4_342 (_ bv846 32)) (bvult T4_342 (_ bv2147483648 32)) (bvsle (_ bv0 32) T4_342) (not (= T4_342 (_ bv0 32))) (= ?v_135 (bvadd T4_16 (_ bv3434 32))) (bvult ?v_135 ?v_133) (bvule ?v_0 ?v_135) (bvule ?v_0 ?v_130) (bvule ?v_0 ?v_131) (bvule ?v_0 ?v_132) (not (= ?v_0 (_ bv4294967295 32))) (bvule (_ bv0 32) ?v_0) (not (= ?v_0 (bvadd ?v_133 (_ bv100 32)))) (bvult ?v_0 ?v_133) (not (= ?v_0 (_ bv0 32))) (bvult ?v_136 ?v_133)))))))))))))))))))))))))))))))))))))))))))))))))))))))))))))))
(check-sat)
(exit)
